************************************************************************
file with basedata            : md364_.bas
initial value random generator: 817881269
************************************************************************
projects                      :  1
jobs (incl. supersource/sink ):  22
horizon                       :  149
RESOURCES
  - renewable                 :  2   R
  - nonrenewable              :  2   N
  - doubly constrained        :  0   D
************************************************************************
PROJECT INFORMATION:
pronr.  #jobs rel.date duedate tardcost  MPM-Time
    1     20      0       26       15       26
************************************************************************
PRECEDENCE RELATIONS:
jobnr.    #modes  #successors   successors
   1        1          3           2   3   4
   2        3          2           7  11
   3        3          2           5   7
   4        3          2           6  18
   5        3          1           9
   6        3          1          16
   7        3          3           8  15  17
   8        3          3          13  18  21
   9        3          3          10  11  13
  10        3          2          14  17
  11        3          3          12  16  17
  12        3          1          14
  13        3          1          16
  14        3          3          15  19  21
  15        3          1          20
  16        3          2          19  20
  17        3          2          18  21
  18        3          2          19  20
  19        3          1          22
  20        3          1          22
  21        3          1          22
  22        1          0        
************************************************************************
REQUESTS/DURATIONS:
jobnr. mode duration  R 1  R 2  N 1  N 2
------------------------------------------------------------------------
  1      1     0       0    0    0    0
  2      1     2       0    5    7    8
         2     5       0    4    6    7
         3     9       7    0    5    6
  3      1     6       0    9    5    7
         2     7       0    1    5    6
         3     8       3    0    4    5
  4      1     4       0    6    3    8
         2     4       0    5    4    6
         3    10       5    0    3    5
  5      1     1       0    8    8    5
         2     5       0    6    5    3
         3     6       7    0    4    2
  6      1     1       5    0    2    4
         2     2       4    0    2    4
         3     3       0    2    1    3
  7      1     2       0    4    8    8
         2     8       0    4    8    7
         3     9       0    3    8    6
  8      1     6       0    2   10    8
         2     8       7    0    9    5
         3    10       0    2    9    5
  9      1     2       7    0    7    8
         2     4       0    8    7    7
         3     8       6    0    7    2
 10      1     3       0    4    5   10
         2     7       9    0    4    9
         3    10       8    0    4    9
 11      1     2       0    7    6    7
         2     4       0    4    5    7
         3     7       5    0    4    5
 12      1     1       0    5    8   10
         2     3       0    4    8   10
         3     7       0    2    7   10
 13      1     3       0    1    3    7
         2     5       0    1    3    5
         3     6      10    0    1    2
 14      1     4       4    0    6    5
         2     7       3    0    5    3
         3     8       2    0    4    2
 15      1     1       6    0    9    5
         2     2       0    4    9    3
         3     4       6    0    8    2
 16      1     7       0    9    3    5
         2     8       0    8    2    4
         3    10       0    8    1    4
 17      1     3       6    0    8    9
         2     3       4    0   10    8
         3     5       2    0    5    4
 18      1     1       9    0    5    6
         2     5       0    4    5    4
         3     6       5    0    3    2
 19      1     2       6    0    8    8
         2     7       4    0    8    8
         3     8       0   10    8    8
 20      1     1       0    2    3    8
         2     1       7    0    4    7
         3     5       3    0    2    5
 21      1     4       0    7    2    9
         2     6       0    5    2    6
         3    10       4    0    2    2
 22      1     0       0    0    0    0
************************************************************************
RESOURCEAVAILABILITIES:
  R 1  R 2  N 1  N 2
   24   24  105  117
************************************************************************
MAXIMAL LAGS:
from  to  type  delay
    1   22   ES      0
    1    2   ES      0
    2   22   ES      0
    1    3   ES      0
    3   22   ES      0
    1    4   ES      0
    4   22   ES      0
    1    5   ES      0
    5   22   ES      0
    1    6   ES      0
    6   22   ES      0
    1    7   ES      0
    7   22   ES      0
    1    8   ES      0
    8   22   ES      0
    1    9   ES      0
    9   22   ES      0
    1   10   ES      0
   10   22   ES      0
    1   11   ES      0
   11   22   ES      0
    1   12   ES      0
   12   22   ES      0
    1   13   ES      0
   13   22   ES      0
    1   14   ES      0
   14   22   ES      0
    1   15   ES      0
   15   22   ES      0
    1   16   ES      0
   16   22   ES      0
    1   17   ES      0
   17   22   ES      0
    1   18   ES      0
   18   22   ES      0
    1   19   ES      0
   19   22   ES      0
    1   20   ES      0
   20   22   ES      0
    1   21   ES      0
   21   22   ES      0
    1   22   ES      0
    2    7   SS      8
    2    7   SE     -8
    2    7   ES     -4
    2    7   EE      2
    2   11   SS      0
    2   11   SE     11
    2   11   ES      3
    2   11   EE     -1
    3    5   SS     -9
    3    5   SE     -8
    3    5   ES     -2
    3    5   EE     10
    3    7   SS      5
    3    7   SE     -6
    3    7   ES      3
    3    7   EE     12
    4    6   SS      8
    4    6   SE      6
    4    6   ES      6
    4    6   EE    -12
    4   18   SS    -11
    4   18   SE     11
    4   18   ES     -1
    4   18   EE     -6
    5    9   SS      0
    5    9   SE     11
    5    9   ES     12
    5    9   EE      1
    6   16   SS      7
    6   16   SE     -6
    6   16   ES     -6
    6   16   EE     -8
    7    8   SS      3
    7    8   SE      1
    7    8   ES     -5
    7    8   EE     -6
    7   15   SS     -4
    7   15   SE     -8
    7   15   ES     -8
    7   15   EE      5
    7   17   SS     -1
    7   17   SE     10
   17    7   SE      0
    7   17   ES      0
    7   17   EE     -7
    8   13   SS     12
    8   13   SE     12
    8   13   ES      4
    8   13   EE     -5
    8   18   SS      2
    8   18   SE     -8
    8   18   ES     -5
    8   18   EE      3
    8   21   SS      9
    8   21   SE     -7
    8   21   ES     -7
    8   21   EE     -2
    9   10   SS     12
    9   10   SE      6
    9   10   ES     -6
    9   10   EE     -9
    9   11   SS    -11
    9   11   SE     -5
    9   11   ES     -5
    9   11   EE     10
    9   13   SS      3
    9   13   SE     12
    9   13   ES     11
    9   13   EE     10
   10   14   SS     10
   10   14   SE    -11
   10   14   ES    -12
   10   14   EE      5
   10   17   SS     10
   10   17   SE      6
   10   17   ES     -3
   10   17   EE     -8
   11   12   SS      8
   11   12   SE     -6
   11   12   ES     -4
   11   12   EE    -11
   11   16   SS     -6
   11   16   SE     11
   11   16   ES      2
   11   16   EE    -12
   11   17   SS     -4
   11   17   SE     -6
   11   17   ES     -6
   11   17   EE     -5
   12   14   SS     12
   12   14   SE     -6
   12   14   ES      9
   12   14   EE     -9
   13   16   SS      8
   13   16   SE      8
   13   16   ES      5
   13   16   EE      4
   14   15   SS     -6
   14   15   SE      5
   14   15   ES     -4
   14   15   EE     -1
   14   19   SS      0
   14   19   SE      8
   14   19   ES     12
   14   19   EE    -10
   14   21   SS     -8
   14   21   SE     -1
   14   21   ES      8
   14   21   EE      3
   15   20   SS      5
   15   20   SE      8
   15   20   ES    -12
   15   20   EE     -4
   16   19   SS      2
   16   19   SE     -5
   16   19   ES      2
   16   19   EE     -9
   16   20   SS      6
   16   20   SE      4
   16   20   ES     10
   16   20   EE      8
   17   18   SS      8
   17   18   SE     -1
   17   18   ES     12
   17   18   EE      9
   17   21   SS      9
   17   21   SE     -9
   17   21   ES      3
   17   21   EE      1
   18   19   SS      6
   18   19   SE      9
   18   19   ES      0
   18   19   EE      5
   18   20   SS    -12
   18   20   SE      8
   18   20   ES      8
   18   20   EE      0
************************************************************************
